NAME          DCAP_3_4_2_500_SS254
ROWS
 N  OBJ
 L  CON1
 L  CON2
 L  CON3
 L  CON4
 L  CON5
 L  CON6
 L  CON7
 L  CON8
 L  CON9
 L  CON10
 L  CON11
 L  CON12
 E  CON13
 E  CON14
 E  CON15
 E  CON16
 E  CON17
 E  CON18
 E  CON19
 E  CON20
COLUMNS
    x[1,1]    OBJ       6.180167      CON1      1.000000    
    x[1,1]    CON7      -1.000000     CON8      -1.000000   
    x[1,2]    OBJ       5.039546      CON2      1.000000    
    x[1,2]    CON8      -1.000000   
    x[2,1]    OBJ       6.732585      CON3      1.000000    
    x[2,1]    CON9      -1.000000     CON10     -1.000000   
    x[2,2]    OBJ       7.443064      CON4      1.000000    
    x[2,2]    CON10     -1.000000   
    x[3,1]    OBJ       6.563535      CON5      1.000000    
    x[3,1]    CON11     -1.000000     CON12     -1.000000   
    x[3,2]    OBJ       6.054841      CON6      1.000000    
    x[3,2]    CON12     -1.000000   
    MARKER    'MARKER'                'INTORG'
    u[1,1]    OBJ       48.076654     CON1      -1.000000   
    u[1,2]    OBJ       49.466655     CON2      -1.000000   
    u[2,1]    OBJ       49.996186     CON3      -1.000000   
    u[2,2]    OBJ       32.230043     CON4      -1.000000   
    u[3,1]    OBJ       20.066487     CON5      -1.000000   
    u[3,2]    OBJ       27.484319     CON6      -1.000000   
    y[1,1,1]  OBJ       5.865438      CON7      0.508532    
    y[1,1,1]  CON13     1.000000    
    y[1,1,2]  OBJ       8.369873      CON8      0.883165    
    y[1,1,2]  CON14     1.000000    
    y[1,2,1]  OBJ       8.313874      CON7      1.464224    
    y[1,2,1]  CON15     1.000000    
    y[1,2,2]  OBJ       7.110247      CON8      0.868967    
    y[1,2,2]  CON16     1.000000    
    y[1,3,1]  OBJ       5.786463      CON7      1.285774    
    y[1,3,1]  CON17     1.000000    
    y[1,3,2]  OBJ       7.782263      CON8      1.310678    
    y[1,3,2]  CON18     1.000000    
    y[1,4,1]  OBJ       5.053622      CON7      1.152772    
    y[1,4,1]  CON19     1.000000    
    y[1,4,2]  OBJ       9.292833      CON8      1.069229    
    y[1,4,2]  CON20     1.000000    
    y[2,1,1]  OBJ       7.857418      CON9      0.508532    
    y[2,1,1]  CON13     1.000000    
    y[2,1,2]  OBJ       7.632564      CON10     0.883165    
    y[2,1,2]  CON14     1.000000    
    y[2,2,1]  OBJ       7.183945      CON9      1.464224    
    y[2,2,1]  CON15     1.000000    
    y[2,2,2]  OBJ       9.517874      CON10     0.868967    
    y[2,2,2]  CON16     1.000000    
    y[2,3,1]  OBJ       6.857233      CON9      1.285774    
    y[2,3,1]  CON17     1.000000    
    y[2,3,2]  OBJ       8.495937      CON10     1.310678    
    y[2,3,2]  CON18     1.000000    
    y[2,4,1]  OBJ       9.996944      CON9      1.152772    
    y[2,4,1]  CON19     1.000000    
    y[2,4,2]  OBJ       9.073554      CON10     1.069229    
    y[2,4,2]  CON20     1.000000    
    y[3,1,1]  OBJ       9.396216      CON11     0.508532    
    y[3,1,1]  CON13     1.000000    
    y[3,1,2]  OBJ       5.000709      CON12     0.883165    
    y[3,1,2]  CON14     1.000000    
    y[3,2,1]  OBJ       5.033671      CON11     1.464224    
    y[3,2,1]  CON15     1.000000    
    y[3,2,2]  OBJ       7.210975      CON12     0.868967    
    y[3,2,2]  CON16     1.000000    
    y[3,3,1]  OBJ       8.720197      CON11     1.285774    
    y[3,3,1]  CON17     1.000000    
    y[3,3,2]  OBJ       9.970598      CON12     1.310678    
    y[3,3,2]  CON18     1.000000    
    y[3,4,1]  OBJ       8.163591      CON11     1.152772    
    y[3,4,1]  CON19     1.000000    
    y[3,4,2]  OBJ       9.584966      CON12     1.069229    
    y[3,4,2]  CON20     1.000000    
    z[1,1]    OBJ       587.619672    CON13     1.000000    
    z[1,2]    OBJ       507.523166    CON14     1.000000    
    z[2,1]    OBJ       856.171251    CON15     1.000000    
    z[2,2]    OBJ       853.378492    CON16     1.000000    
    z[3,1]    OBJ       601.398067    CON17     1.000000    
    z[3,2]    OBJ       611.922130    CON18     1.000000    
    z[4,1]    OBJ       652.862957    CON19     1.000000    
    z[4,2]    OBJ       836.041740    CON20     1.000000    
    MARKER    'MARKER'                 'INTEND'
RHS
    RHS       CON1      -0.000000     CON2      -0.000000   
    RHS       CON3      -0.000000     CON4      -0.000000   
    RHS       CON5      -0.000000     CON6      -0.000000   
    RHS       CON7      -0.000000     CON8      -0.000000   
    RHS       CON9      -0.000000     CON10     -0.000000   
    RHS       CON11     -0.000000     CON12     -0.000000   
    RHS       CON13     1.000000      CON14     1.000000    
    RHS       CON15     1.000000      CON16     1.000000    
    RHS       CON17     1.000000      CON18     1.000000    
    RHS       CON19     1.000000      CON20     1.000000    
BOUNDS
 BV BOUND     u[1,1]  
 BV BOUND     u[1,2]  
 BV BOUND     u[2,1]  
 BV BOUND     u[2,2]  
 BV BOUND     u[3,1]  
 BV BOUND     u[3,2]  
 BV BOUND     y[1,1,1]
 BV BOUND     y[1,1,2]
 BV BOUND     y[1,2,1]
 BV BOUND     y[1,2,2]
 BV BOUND     y[1,3,1]
 BV BOUND     y[1,3,2]
 BV BOUND     y[1,4,1]
 BV BOUND     y[1,4,2]
 BV BOUND     y[2,1,1]
 BV BOUND     y[2,1,2]
 BV BOUND     y[2,2,1]
 BV BOUND     y[2,2,2]
 BV BOUND     y[2,3,1]
 BV BOUND     y[2,3,2]
 BV BOUND     y[2,4,1]
 BV BOUND     y[2,4,2]
 BV BOUND     y[3,1,1]
 BV BOUND     y[3,1,2]
 BV BOUND     y[3,2,1]
 BV BOUND     y[3,2,2]
 BV BOUND     y[3,3,1]
 BV BOUND     y[3,3,2]
 BV BOUND     y[3,4,1]
 BV BOUND     y[3,4,2]
 BV BOUND     z[1,1]  
 BV BOUND     z[1,2]  
 BV BOUND     z[2,1]  
 BV BOUND     z[2,2]  
 BV BOUND     z[3,1]  
 BV BOUND     z[3,2]  
 BV BOUND     z[4,1]  
 BV BOUND     z[4,2]  
ENDATA
